# created by fftool

# units real
# boundary p p p
read_restart restart1.lmp
# atom_style full
# bond_style harmonic
# angle_style harmonic
# dihedral_style opls

special_bonds lj/coul 0.0 0.0 0.5

pair_style hybrid/overlay lj/cut/coul/long 12.0 coul/long/cs 12.0 thole 2.600 12.0
pair_modify tail yes
kspace_style pppm 1.0e-6 #FP we use 1.0e-6

# read_data equilibrated3ns.dat extra/special/per/atom 3
include pair-p-sc.lmp

group ATOMS type 1 2 3 4 5 6 7 8 9 10 11 12 13 14 15 16
group CORES type 1 2 3 4 5 6 12 14 15 16
group DRUDES type 17 18 19 20 21 22 23 24 25 26

fix DRUDE all drude C C C C C C N N N N N C N C C C D D D D D D D D D D




fix SHAKE all shake 0.0001 20 0 b 3 5

neighbor 2.0 bin
neigh_modify delay 0 every 1 check yes

timestep 0.5

variable TK equal 298.15
variable TDK equal 1.0
variable PBAR equal 1.0



comm_modify vel yes

compute TDRUDE all temp/drude

# fix NVT all tgnvt/drude temp $T $T 100 1.0 25 #FP we use 5 for the last parameter, not 100...

fix ICECUBE all momentum 1000 linear 1 1 1


thermo_style custom step etotal spcpu press c_TDRUDE[1] c_TDRUDE[2] c_TDRUDE[3] c_TDRUDE[4]
thermo 1000

fix NVT all tgnvt/drude temp ${TK} ${TK} 100 1.0 25








write_dump all custom snapshot.lmp id q element xu yu zu modify sort id element P C C C C C H H H H H C H B C N D D D D D D D D D D

dump TRAJ all custom 2 /rds/general/ephemeral/user/fdp18/ephemeral/MDSimulations/P5551TCB/298K_1fs_XYZ.lmp element xu yu zu
dump_modify TRAJ sort id element P C C C C C H H H H H C H B C N D D D D D D D D D D

reset_timestep 0

run 100000

write_data after_production.dat
