pair_coeff    1    1 lj/cut/coul/long     0.200000     3.740000  # PT PT
pair_coeff    1    2 lj/cut/coul/long     0.114890     3.618011  # PT C1
pair_coeff    1    3 lj/cut/coul/long     0.114890     3.618011  # PT C2
pair_coeff    1    4 lj/cut/coul/long     0.114890     3.618011  # PT C4
pair_coeff    1    5 lj/cut/coul/long     0.114890     3.618011  # PT C5
pair_coeff    1    6 lj/cut/coul/long     0.114890     3.618011  # PT CM
pair_coeff    1    7 lj/cut/coul/long     0.077460     3.057777  # PT H1
pair_coeff    1    8 lj/cut/coul/long     0.077460     3.057777  # PT H2
pair_coeff    1    9 lj/cut/coul/long     0.077460     3.057777  # PT H4
pair_coeff    1   10 lj/cut/coul/long     0.077460     3.057777  # PT H5
pair_coeff    1   11 lj/cut/coul/long     0.077460     3.057777  # PT HM
pair_coeff    1   12 lj/cut/coul/long     0.167332     3.293327  # PT O3
pair_coeff    1   13 lj/cut/coul/long     0.063435     3.618011  # PT CBT ~
pair_coeff    1   14 lj/cut/coul/long     0.061007     3.414867  # PT F1 ~
pair_coeff    1   15 lj/cut/coul/long     0.123462     3.643762  # PT SBT ~
pair_coeff    1   16 lj/cut/coul/long     0.101810     3.486402  # PT NBT ~
pair_coeff    1   17 lj/cut/coul/long     0.110465     3.432346  # PT OBT ~
pair_coeff    2    2 lj/cut/coul/long     0.065999     3.500000  # C1 C1
pair_coeff    2    3 lj/cut/coul/long     0.065999     3.500000  # C1 C2
pair_coeff    2    4 lj/cut/coul/long     0.065999     3.500000  # C1 C4
pair_coeff    2    5 lj/cut/coul/long     0.065999     3.500000  # C1 C5
pair_coeff    2    6 lj/cut/coul/long     0.065999     3.500000  # C1 CM
pair_coeff    2    7 lj/cut/coul/long     0.044497     2.958040  # C1 H1
pair_coeff    2    8 lj/cut/coul/long     0.044497     2.958040  # C1 H2
pair_coeff    2    9 lj/cut/coul/long     0.044497     2.958040  # C1 H4
pair_coeff    2   10 lj/cut/coul/long     0.044497     2.958040  # C1 H5
pair_coeff    2   11 lj/cut/coul/long     0.044497     2.958040  # C1 HM
pair_coeff    2   12 lj/cut/coul/long     0.096124     3.185906  # C1 O3
pair_coeff    2   13 lj/cut/coul/long     0.036441     3.500000  # C1 CBT ~
pair_coeff    2   14 lj/cut/coul/long     0.035045     3.303483  # C1 F1 ~
pair_coeff    2   15 lj/cut/coul/long     0.070923     3.524911  # C1 SBT ~
pair_coeff    2   16 lj/cut/coul/long     0.058485     3.372684  # C1 NBT ~
pair_coeff    2   17 lj/cut/coul/long     0.063457     3.320392  # C1 OBT ~
pair_coeff    3    3 lj/cut/coul/long     0.065999     3.500000  # C2 C2
pair_coeff    3    4 lj/cut/coul/long     0.065999     3.500000  # C2 C4
pair_coeff    3    5 lj/cut/coul/long     0.065999     3.500000  # C2 C5
pair_coeff    3    6 lj/cut/coul/long     0.065999     3.500000  # C2 CM
pair_coeff    3    7 lj/cut/coul/long     0.044497     2.958040  # C2 H1
pair_coeff    3    8 lj/cut/coul/long     0.044497     2.958040  # C2 H2
pair_coeff    3    9 lj/cut/coul/long     0.044497     2.958040  # C2 H4
pair_coeff    3   10 lj/cut/coul/long     0.044497     2.958040  # C2 H5
pair_coeff    3   11 lj/cut/coul/long     0.044497     2.958040  # C2 HM
pair_coeff    3   12 lj/cut/coul/long     0.096124     3.185906  # C2 O3
pair_coeff    3   13 lj/cut/coul/long     0.036441     3.500000  # C2 CBT ~
pair_coeff    3   14 lj/cut/coul/long     0.035045     3.303483  # C2 F1 ~
pair_coeff    3   15 lj/cut/coul/long     0.070923     3.524911  # C2 SBT ~
pair_coeff    3   16 lj/cut/coul/long     0.058485     3.372684  # C2 NBT ~
pair_coeff    3   17 lj/cut/coul/long     0.063457     3.320392  # C2 OBT ~
pair_coeff    4    4 lj/cut/coul/long     0.065999     3.500000  # C4 C4
pair_coeff    4    5 lj/cut/coul/long     0.065999     3.500000  # C4 C5
pair_coeff    4    6 lj/cut/coul/long     0.065999     3.500000  # C4 CM
pair_coeff    4    7 lj/cut/coul/long     0.044497     2.958040  # C4 H1
pair_coeff    4    8 lj/cut/coul/long     0.044497     2.958040  # C4 H2
pair_coeff    4    9 lj/cut/coul/long     0.044497     2.958040  # C4 H4
pair_coeff    4   10 lj/cut/coul/long     0.044497     2.958040  # C4 H5
pair_coeff    4   11 lj/cut/coul/long     0.044497     2.958040  # C4 HM
pair_coeff    4   12 lj/cut/coul/long     0.096124     3.185906  # C4 O3
pair_coeff    4   13 lj/cut/coul/long     0.036441     3.500000  # C4 CBT ~
pair_coeff    4   14 lj/cut/coul/long     0.035045     3.303483  # C4 F1 ~
pair_coeff    4   15 lj/cut/coul/long     0.070923     3.524911  # C4 SBT ~
pair_coeff    4   16 lj/cut/coul/long     0.058485     3.372684  # C4 NBT ~
pair_coeff    4   17 lj/cut/coul/long     0.063457     3.320392  # C4 OBT ~
pair_coeff    5    5 lj/cut/coul/long     0.065999     3.500000  # C5 C5
pair_coeff    5    6 lj/cut/coul/long     0.065999     3.500000  # C5 CM
pair_coeff    5    7 lj/cut/coul/long     0.044497     2.958040  # C5 H1
pair_coeff    5    8 lj/cut/coul/long     0.044497     2.958040  # C5 H2
pair_coeff    5    9 lj/cut/coul/long     0.044497     2.958040  # C5 H4
pair_coeff    5   10 lj/cut/coul/long     0.044497     2.958040  # C5 H5
pair_coeff    5   11 lj/cut/coul/long     0.044497     2.958040  # C5 HM
pair_coeff    5   12 lj/cut/coul/long     0.096124     3.185906  # C5 O3
pair_coeff    5   13 lj/cut/coul/long     0.036441     3.500000  # C5 CBT ~
pair_coeff    5   14 lj/cut/coul/long     0.035045     3.303483  # C5 F1 ~
pair_coeff    5   15 lj/cut/coul/long     0.070923     3.524911  # C5 SBT ~
pair_coeff    5   16 lj/cut/coul/long     0.058485     3.372684  # C5 NBT ~
pair_coeff    5   17 lj/cut/coul/long     0.063457     3.320392  # C5 OBT ~
pair_coeff    6    6 lj/cut/coul/long     0.065999     3.500000  # CM CM
pair_coeff    6    7 lj/cut/coul/long     0.044497     2.958040  # CM H1
pair_coeff    6    8 lj/cut/coul/long     0.044497     2.958040  # CM H2
pair_coeff    6    9 lj/cut/coul/long     0.044497     2.958040  # CM H4
pair_coeff    6   10 lj/cut/coul/long     0.044497     2.958040  # CM H5
pair_coeff    6   11 lj/cut/coul/long     0.044497     2.958040  # CM HM
pair_coeff    6   12 lj/cut/coul/long     0.096124     3.185906  # CM O3
pair_coeff    6   13 lj/cut/coul/long     0.036441     3.500000  # CM CBT ~
pair_coeff    6   14 lj/cut/coul/long     0.035045     3.303483  # CM F1 ~
pair_coeff    6   15 lj/cut/coul/long     0.070923     3.524911  # CM SBT ~
pair_coeff    6   16 lj/cut/coul/long     0.058485     3.372684  # CM NBT ~
pair_coeff    6   17 lj/cut/coul/long     0.063457     3.320392  # CM OBT ~
pair_coeff    7    7 lj/cut/coul/long     0.030000     2.500000  # H1 H1
pair_coeff    7    8 lj/cut/coul/long     0.030000     2.500000  # H1 H2
pair_coeff    7    9 lj/cut/coul/long     0.030000     2.500000  # H1 H4
pair_coeff    7   10 lj/cut/coul/long     0.030000     2.500000  # H1 H5
pair_coeff    7   11 lj/cut/coul/long     0.030000     2.500000  # H1 HM
pair_coeff    7   12 lj/cut/coul/long     0.064807     2.692582  # H1 O3
pair_coeff    7   13 lj/cut/coul/long     0.024569     2.958040  # H1 CBT ~
pair_coeff    7   14 lj/cut/coul/long     0.023628     2.791953  # H1 F1 ~
pair_coeff    7   15 lj/cut/coul/long     0.047817     2.979094  # H1 SBT ~
pair_coeff    7   16 lj/cut/coul/long     0.039431     2.850439  # H1 NBT ~
pair_coeff    7   17 lj/cut/coul/long     0.042783     2.806243  # H1 OBT ~
pair_coeff    8    8 lj/cut/coul/long     0.030000     2.500000  # H2 H2
pair_coeff    8    9 lj/cut/coul/long     0.030000     2.500000  # H2 H4
pair_coeff    8   10 lj/cut/coul/long     0.030000     2.500000  # H2 H5
pair_coeff    8   11 lj/cut/coul/long     0.030000     2.500000  # H2 HM
pair_coeff    8   12 lj/cut/coul/long     0.064807     2.692582  # H2 O3
pair_coeff    8   13 lj/cut/coul/long     0.024569     2.958040  # H2 CBT ~
pair_coeff    8   14 lj/cut/coul/long     0.023628     2.791953  # H2 F1 ~
pair_coeff    8   15 lj/cut/coul/long     0.047817     2.979094  # H2 SBT ~
pair_coeff    8   16 lj/cut/coul/long     0.039431     2.850439  # H2 NBT ~
pair_coeff    8   17 lj/cut/coul/long     0.042783     2.806243  # H2 OBT ~
pair_coeff    9    9 lj/cut/coul/long     0.030000     2.500000  # H4 H4
pair_coeff    9   10 lj/cut/coul/long     0.030000     2.500000  # H4 H5
pair_coeff    9   11 lj/cut/coul/long     0.030000     2.500000  # H4 HM
pair_coeff    9   12 lj/cut/coul/long     0.064807     2.692582  # H4 O3
pair_coeff    9   13 lj/cut/coul/long     0.024569     2.958040  # H4 CBT ~
pair_coeff    9   14 lj/cut/coul/long     0.023628     2.791953  # H4 F1 ~
pair_coeff    9   15 lj/cut/coul/long     0.047817     2.979094  # H4 SBT ~
pair_coeff    9   16 lj/cut/coul/long     0.039431     2.850439  # H4 NBT ~
pair_coeff    9   17 lj/cut/coul/long     0.042783     2.806243  # H4 OBT ~
pair_coeff   10   10 lj/cut/coul/long     0.030000     2.500000  # H5 H5
pair_coeff   10   11 lj/cut/coul/long     0.030000     2.500000  # H5 HM
pair_coeff   10   12 lj/cut/coul/long     0.064807     2.692582  # H5 O3
pair_coeff   10   13 lj/cut/coul/long     0.024569     2.958040  # H5 CBT ~
pair_coeff   10   14 lj/cut/coul/long     0.023628     2.791953  # H5 F1 ~
pair_coeff   10   15 lj/cut/coul/long     0.047817     2.979094  # H5 SBT ~
pair_coeff   10   16 lj/cut/coul/long     0.039431     2.850439  # H5 NBT ~
pair_coeff   10   17 lj/cut/coul/long     0.042783     2.806243  # H5 OBT ~
pair_coeff   11   11 lj/cut/coul/long     0.030000     2.500000  # HM HM
pair_coeff   11   12 lj/cut/coul/long     0.064807     2.692582  # HM O3
pair_coeff   11   13 lj/cut/coul/long     0.024569     2.958040  # HM CBT ~
pair_coeff   11   14 lj/cut/coul/long     0.023628     2.791953  # HM F1 ~
pair_coeff   11   15 lj/cut/coul/long     0.047817     2.979094  # HM SBT ~
pair_coeff   11   16 lj/cut/coul/long     0.039431     2.850439  # HM NBT ~
pair_coeff   11   17 lj/cut/coul/long     0.042783     2.806243  # HM OBT ~
pair_coeff   12   12 lj/cut/coul/long     0.140000     2.900000  # O3 O3
pair_coeff   12   13 lj/cut/coul/long     0.053074     3.185906  # O3 CBT ~
pair_coeff   12   14 lj/cut/coul/long     0.051042     3.007025  # O3 F1 ~
pair_coeff   12   15 lj/cut/coul/long     0.103296     3.208582  # O3 SBT ~
pair_coeff   12   16 lj/cut/coul/long     0.085180     3.070016  # O3 NBT ~
pair_coeff   12   17 lj/cut/coul/long     0.092422     3.022416  # O3 OBT ~
pair_coeff   13   13 lj/cut/coul/long     0.065999     3.500000  # CBT CBT
pair_coeff   13   14 lj/cut/coul/long     0.063472     3.303483  # CBT F1
pair_coeff   13   15 lj/cut/coul/long     0.128451     3.524911  # CBT SBT
pair_coeff   13   16 lj/cut/coul/long     0.105924     3.372684  # CBT NBT
pair_coeff   13   17 lj/cut/coul/long     0.114929     3.320392  # CBT OBT
pair_coeff   14   14 lj/cut/coul/long     0.061042     3.118000  # F1 F1
pair_coeff   14   15 lj/cut/coul/long     0.123533     3.326996  # F1 SBT
pair_coeff   14   16 lj/cut/coul/long     0.101868     3.183316  # F1 NBT
pair_coeff   14   17 lj/cut/coul/long     0.110529     3.133959  # F1 OBT
pair_coeff   15   15 lj/cut/coul/long     0.250000     3.550000  # SBT SBT
pair_coeff   15   16 lj/cut/coul/long     0.206155     3.396690  # SBT NBT
pair_coeff   15   17 lj/cut/coul/long     0.223682     3.344025  # SBT OBT
pair_coeff   16   16 lj/cut/coul/long     0.170000     3.250000  # NBT NBT
pair_coeff   16   17 lj/cut/coul/long     0.184453     3.199609  # NBT OBT
pair_coeff   17   17 lj/cut/coul/long     0.200134     3.150000  # OBT OBT
pair_coeff    *  18* coul/long/cs
pair_coeff    1    1 thole   1.237
pair_coeff    1    2 thole   1.434
pair_coeff    1    3 thole   1.434
pair_coeff    1    4 thole   1.434
pair_coeff    1    5 thole   1.567
pair_coeff    1    6 thole   1.567
pair_coeff    1   12 thole   1.190
pair_coeff    1   13 thole   1.121
pair_coeff    1   14 thole   0.879
pair_coeff    1   15 thole   1.386
pair_coeff    1   16 thole   1.449
pair_coeff    1   17 thole   1.190
pair_coeff    1   18 thole   1.237
pair_coeff    1   19 thole   1.434
pair_coeff    1   20 thole   1.434
pair_coeff    1   21 thole   1.434
pair_coeff    1   22 thole   1.567
pair_coeff    1   23 thole   1.567
pair_coeff    1   24 thole   1.190
pair_coeff    1   25 thole   1.121
pair_coeff    1   26 thole   0.879
pair_coeff    1   27 thole   1.386
pair_coeff    1   28 thole   1.449
pair_coeff    1   29 thole   1.190
pair_coeff    2    2 thole   1.662
pair_coeff    2    3 thole   1.662
pair_coeff    2    4 thole   1.662
pair_coeff    2    5 thole   1.816
pair_coeff    2    6 thole   1.816
pair_coeff    2   12 thole   1.379
pair_coeff    2   13 thole   1.299
pair_coeff    2   14 thole   1.019
pair_coeff    2   15 thole   1.607
pair_coeff    2   16 thole   1.680
pair_coeff    2   17 thole   1.379
pair_coeff    2   18 thole   1.434
pair_coeff    2   19 thole   1.662
pair_coeff    2   20 thole   1.662
pair_coeff    2   21 thole   1.662
pair_coeff    2   22 thole   1.816
pair_coeff    2   23 thole   1.816
pair_coeff    2   24 thole   1.379
pair_coeff    2   25 thole   1.299
pair_coeff    2   26 thole   1.019
pair_coeff    2   27 thole   1.607
pair_coeff    2   28 thole   1.680
pair_coeff    2   29 thole   1.379
pair_coeff    3    3 thole   1.662
pair_coeff    3    4 thole   1.662
pair_coeff    3    5 thole   1.816
pair_coeff    3    6 thole   1.816
pair_coeff    3   12 thole   1.379
pair_coeff    3   13 thole   1.299
pair_coeff    3   14 thole   1.019
pair_coeff    3   15 thole   1.607
pair_coeff    3   16 thole   1.680
pair_coeff    3   17 thole   1.379
pair_coeff    3   18 thole   1.434
pair_coeff    3   19 thole   1.662
pair_coeff    3   20 thole   1.662
pair_coeff    3   21 thole   1.662
pair_coeff    3   22 thole   1.816
pair_coeff    3   23 thole   1.816
pair_coeff    3   24 thole   1.379
pair_coeff    3   25 thole   1.299
pair_coeff    3   26 thole   1.019
pair_coeff    3   27 thole   1.607
pair_coeff    3   28 thole   1.680
pair_coeff    3   29 thole   1.379
pair_coeff    4    4 thole   1.662
pair_coeff    4    5 thole   1.816
pair_coeff    4    6 thole   1.816
pair_coeff    4   12 thole   1.379
pair_coeff    4   13 thole   1.299
pair_coeff    4   14 thole   1.019
pair_coeff    4   15 thole   1.607
pair_coeff    4   16 thole   1.680
pair_coeff    4   17 thole   1.379
pair_coeff    4   18 thole   1.434
pair_coeff    4   19 thole   1.662
pair_coeff    4   20 thole   1.662
pair_coeff    4   21 thole   1.662
pair_coeff    4   22 thole   1.816
pair_coeff    4   23 thole   1.816
pair_coeff    4   24 thole   1.379
pair_coeff    4   25 thole   1.299
pair_coeff    4   26 thole   1.019
pair_coeff    4   27 thole   1.607
pair_coeff    4   28 thole   1.680
pair_coeff    4   29 thole   1.379
pair_coeff    5    5 thole   1.985
pair_coeff    5    6 thole   1.985
pair_coeff    5   12 thole   1.507
pair_coeff    5   13 thole   1.420
pair_coeff    5   14 thole   1.114
pair_coeff    5   15 thole   1.756
pair_coeff    5   16 thole   1.836
pair_coeff    5   17 thole   1.507
pair_coeff    5   18 thole   1.567
pair_coeff    5   19 thole   1.816
pair_coeff    5   20 thole   1.816
pair_coeff    5   21 thole   1.816
pair_coeff    5   22 thole   1.985
pair_coeff    5   23 thole   1.985
pair_coeff    5   24 thole   1.507
pair_coeff    5   25 thole   1.420
pair_coeff    5   26 thole   1.114
pair_coeff    5   27 thole   1.756
pair_coeff    5   28 thole   1.836
pair_coeff    5   29 thole   1.507
pair_coeff    6    6 thole   1.985
pair_coeff    6   12 thole   1.507
pair_coeff    6   13 thole   1.420
pair_coeff    6   14 thole   1.114
pair_coeff    6   15 thole   1.756
pair_coeff    6   16 thole   1.836
pair_coeff    6   17 thole   1.507
pair_coeff    6   18 thole   1.567
pair_coeff    6   19 thole   1.816
pair_coeff    6   20 thole   1.816
pair_coeff    6   21 thole   1.816
pair_coeff    6   22 thole   1.985
pair_coeff    6   23 thole   1.985
pair_coeff    6   24 thole   1.507
pair_coeff    6   25 thole   1.420
pair_coeff    6   26 thole   1.114
pair_coeff    6   27 thole   1.756
pair_coeff    6   28 thole   1.836
pair_coeff    6   29 thole   1.507
pair_coeff   12   12 thole   1.144
pair_coeff   12   13 thole   1.078
pair_coeff   12   14 thole   0.846
pair_coeff   12   15 thole   1.333
pair_coeff   12   16 thole   1.394
pair_coeff   12   17 thole   1.144
pair_coeff   12   18 thole   1.190
pair_coeff   12   19 thole   1.379
pair_coeff   12   20 thole   1.379
pair_coeff   12   21 thole   1.379
pair_coeff   12   22 thole   1.507
pair_coeff   12   23 thole   1.507
pair_coeff   12   24 thole   1.144
pair_coeff   12   25 thole   1.078
pair_coeff   12   26 thole   0.846
pair_coeff   12   27 thole   1.333
pair_coeff   12   28 thole   1.394
pair_coeff   12   29 thole   1.144
pair_coeff   13   13 thole   1.016
pair_coeff   13   14 thole   0.797
pair_coeff   13   15 thole   1.256
pair_coeff   13   16 thole   1.313
pair_coeff   13   17 thole   1.078
pair_coeff   13   18 thole   1.121
pair_coeff   13   19 thole   1.299
pair_coeff   13   20 thole   1.299
pair_coeff   13   21 thole   1.299
pair_coeff   13   22 thole   1.420
pair_coeff   13   23 thole   1.420
pair_coeff   13   24 thole   1.078
pair_coeff   13   25 thole   1.016
pair_coeff   13   26 thole   0.797
pair_coeff   13   27 thole   1.256
pair_coeff   13   28 thole   1.313
pair_coeff   13   29 thole   1.078
pair_coeff   14   14 thole   0.625
pair_coeff   14   15 thole   0.985
pair_coeff   14   16 thole   1.030
pair_coeff   14   17 thole   0.846
pair_coeff   14   18 thole   0.879
pair_coeff   14   19 thole   1.019
pair_coeff   14   20 thole   1.019
pair_coeff   14   21 thole   1.019
pair_coeff   14   22 thole   1.114
pair_coeff   14   23 thole   1.114
pair_coeff   14   24 thole   0.846
pair_coeff   14   25 thole   0.797
pair_coeff   14   26 thole   0.625
pair_coeff   14   27 thole   0.985
pair_coeff   14   28 thole   1.030
pair_coeff   14   29 thole   0.846
pair_coeff   15   15 thole   1.553
pair_coeff   15   16 thole   1.624
pair_coeff   15   17 thole   1.333
pair_coeff   15   18 thole   1.386
pair_coeff   15   19 thole   1.607
pair_coeff   15   20 thole   1.607
pair_coeff   15   21 thole   1.607
pair_coeff   15   22 thole   1.756
pair_coeff   15   23 thole   1.756
pair_coeff   15   24 thole   1.333
pair_coeff   15   25 thole   1.256
pair_coeff   15   26 thole   0.985
pair_coeff   15   27 thole   1.553
pair_coeff   15   28 thole   1.624
pair_coeff   15   29 thole   1.333
pair_coeff   16   16 thole   1.698
pair_coeff   16   17 thole   1.394
pair_coeff   16   18 thole   1.449
pair_coeff   16   19 thole   1.680
pair_coeff   16   20 thole   1.680
pair_coeff   16   21 thole   1.680
pair_coeff   16   22 thole   1.836
pair_coeff   16   23 thole   1.836
pair_coeff   16   24 thole   1.394
pair_coeff   16   25 thole   1.313
pair_coeff   16   26 thole   1.030
pair_coeff   16   27 thole   1.624
pair_coeff   16   28 thole   1.698
pair_coeff   16   29 thole   1.394
pair_coeff   17   17 thole   1.144
pair_coeff   17   18 thole   1.190
pair_coeff   17   19 thole   1.379
pair_coeff   17   20 thole   1.379
pair_coeff   17   21 thole   1.379
pair_coeff   17   22 thole   1.507
pair_coeff   17   23 thole   1.507
pair_coeff   17   24 thole   1.144
pair_coeff   17   25 thole   1.078
pair_coeff   17   26 thole   0.846
pair_coeff   17   27 thole   1.333
pair_coeff   17   28 thole   1.394
pair_coeff   17   29 thole   1.144
pair_coeff   18   18 thole   1.237
pair_coeff   18   19 thole   1.434
pair_coeff   18   20 thole   1.434
pair_coeff   18   21 thole   1.434
pair_coeff   18   22 thole   1.567
pair_coeff   18   23 thole   1.567
pair_coeff   18   24 thole   1.190
pair_coeff   18   25 thole   1.121
pair_coeff   18   26 thole   0.879
pair_coeff   18   27 thole   1.386
pair_coeff   18   28 thole   1.449
pair_coeff   18   29 thole   1.190
pair_coeff   19   19 thole   1.662
pair_coeff   19   20 thole   1.662
pair_coeff   19   21 thole   1.662
pair_coeff   19   22 thole   1.816
pair_coeff   19   23 thole   1.816
pair_coeff   19   24 thole   1.379
pair_coeff   19   25 thole   1.299
pair_coeff   19   26 thole   1.019
pair_coeff   19   27 thole   1.607
pair_coeff   19   28 thole   1.680
pair_coeff   19   29 thole   1.379
pair_coeff   20   20 thole   1.662
pair_coeff   20   21 thole   1.662
pair_coeff   20   22 thole   1.816
pair_coeff   20   23 thole   1.816
pair_coeff   20   24 thole   1.379
pair_coeff   20   25 thole   1.299
pair_coeff   20   26 thole   1.019
pair_coeff   20   27 thole   1.607
pair_coeff   20   28 thole   1.680
pair_coeff   20   29 thole   1.379
pair_coeff   21   21 thole   1.662
pair_coeff   21   22 thole   1.816
pair_coeff   21   23 thole   1.816
pair_coeff   21   24 thole   1.379
pair_coeff   21   25 thole   1.299
pair_coeff   21   26 thole   1.019
pair_coeff   21   27 thole   1.607
pair_coeff   21   28 thole   1.680
pair_coeff   21   29 thole   1.379
pair_coeff   22   22 thole   1.985
pair_coeff   22   23 thole   1.985
pair_coeff   22   24 thole   1.507
pair_coeff   22   25 thole   1.420
pair_coeff   22   26 thole   1.114
pair_coeff   22   27 thole   1.756
pair_coeff   22   28 thole   1.836
pair_coeff   22   29 thole   1.507
pair_coeff   23   23 thole   1.985
pair_coeff   23   24 thole   1.507
pair_coeff   23   25 thole   1.420
pair_coeff   23   26 thole   1.114
pair_coeff   23   27 thole   1.756
pair_coeff   23   28 thole   1.836
pair_coeff   23   29 thole   1.507
pair_coeff   24   24 thole   1.144
pair_coeff   24   25 thole   1.078
pair_coeff   24   26 thole   0.846
pair_coeff   24   27 thole   1.333
pair_coeff   24   28 thole   1.394
pair_coeff   24   29 thole   1.144
pair_coeff   25   25 thole   1.016
pair_coeff   25   26 thole   0.797
pair_coeff   25   27 thole   1.256
pair_coeff   25   28 thole   1.313
pair_coeff   25   29 thole   1.078
pair_coeff   26   26 thole   0.625
pair_coeff   26   27 thole   0.985
pair_coeff   26   28 thole   1.030
pair_coeff   26   29 thole   0.846
pair_coeff   27   27 thole   1.553
pair_coeff   27   28 thole   1.624
pair_coeff   27   29 thole   1.333
pair_coeff   28   28 thole   1.698
pair_coeff   28   29 thole   1.394
pair_coeff   29   29 thole   1.144
